100
14 0
9 0
21 1
27 3
30 1
16 4
20 3
19 4
27 2
42 1
33 3
16 3
5 0
29 3
39 4
31 0
25 4
5 4
12 4
19 3
20 0
27 0
23 3
7 4
42 2
34 3
25 2
42 3
37 0
23 2
6 0
10 0
42 4
11 2
3 2
4 4
1 0
2 3
0 1
11 4
12 2
32 1
36 0
34 4
19 0
7 0
33 4
1 4
27 4
11 0
39 1
0 0
9 4
22 4
24 4
32 3
4 0
21 0
10 2
42 0
31 3
23 4
14 4
3 3
22 0
23 0
6 4
13 0
41 0
15 2
18 0
2 4
29 0
7 3
2 1
43 4
30 4
3 0
30 0
21 4
24 0
7 1
33 0
33 1
37 2
9 1
25 1
20 4
33 2
28 3
2 0
12 0
0 4
25 0
6 3
41 3
10 4
16 0
18 4
4 1

